3
0 15
14 0
15 14
2
1 17
17 1
4
2 18
10 2
12 10
18 12
4
3 19
7 8
8 3
19 7
3
4 6
6 11
11 4
4
5 16
9 5
13 9
16 13
119.0
EOF3
0 15
14 0
15 14
2
1 17
17 1
4
2 18
10 2
12 10
18 12
4
3 19
7 8
8 3
19 7
3
4 6
6 11
11 4
4
5 16
9 5
13 9
16 13
119.0
EOF3
0 15
14 0
15 14
2
1 17
17 1
4
2 18
10 2
12 10
18 12
4
3 19
7 8
8 3
19 7
3
4 6
6 11
11 4
4
5 16
9 5
13 9
16 13
119.0
EOF